WARNING: using JuMP.getdual in module Main conflicts with an existing identifier.
  [nonlinear] <nonlin>: (((-6.000000) * <_var0_>) + (1.000000 * <_var1_>) + ((-9.000000) * <_var2_>) + (3.000000 * <_var4_>) + (1.000000 * <_var5_>) + (4.000000 * <_var6_>) + ((-2.000000) * <_var7_>) + (8.000000 * <_var8_>) + ((-6.000000) * <_var9_>) + ((-4.000000) * <_var10_>) + ((-6.000000) * <_var12_>) + (3.000000 * <_var13_>) + (6.000000 * <_var14_>) + (2.000000 * <_var15_>) + (1.000000 * <_var16_>) + (9.000000 * <_var17_>) + (8.000000 * <_var18_>) + ((-10.000000) * <_var19_>) + ((-4.000000) * <_var20_>) + ((-7.000000) * <_var21_>) + ((-8.000000) * <_var22_>) + ((-1.000000) * <_var23_>) + (5.000000 * <_var24_>) + ((-7.000000) * <_var25_>) + (10.000000 * <_var26_>) + ((-3.000000) * <_var27_>) + ((-6.000000) * <_var28_>) + ((-7.000000) * <_var29_>)) <= -5;
violation: right hand side is violated by 5 (scaled: 5)
all 1 solutions given by solution candidate storage are infeasible

presolving:
(round 1, fast)       0 del vars, 0 del conss, 0 add conss, 0 chg bounds, 0 chg sides, 0 chg coeffs, 21001 upgd conss, 0 impls, 0 clqs
(round 2, fast)       0 del vars, 0 del conss, 0 add conss, 25006 chg bounds, 0 chg sides, 0 chg coeffs, 21001 upgd conss, 0 impls, 0 clqs
presolving (3 rounds: 3 fast, 1 medium, 1 exhaustive):
 0 deleted vars, 0 deleted constraints, 0 added constraints, 25006 tightened bounds, 0 added holes, 0 changed sides, 0 changed coefficients
 0 implications, 0 cliques
presolved problem has 25006 variables (0 bin, 0 int, 0 impl, 25006 cont) and 21001 constraints
  21000 constraints of type <linear>
      1 constraints of type <quadratic>
Presolving Time: 674.18

  node  | left  |LP iter|LP it/n| mem |  dualbound   | primalbound  |  gap   
      1 |     0 | 16173 |     - | 284M|-2.976458e+11 |      --      |    Inf 

******************************************************************************
This program contains Ipopt, a library for large-scale nonlinear optimization.
 Ipopt is released as open source code under the Eclipse Public License (EPL).
         For more information visit http://projects.coin-or.org/Ipopt
******************************************************************************

y     1 |     0 | 16173 |     - | 284M|-2.976458e+11 |-1.008296e+09 |  Large 
      1 |     0 | 16173 |     - | 284M|-2.976458e+11 |-1.008296e+09 |  Large 
      1 |     2 | 16173 |     - | 284M|-2.976458e+11 |-1.008296e+09 |  Large 
    100 |     1 |125423 |1103.5 | 286M|-2.976458e+11 |-1.008296e+09 |  Large 
    200 |     1 |224867 |1048.7 | 286M|-2.976458e+11 |-1.008296e+09 |  Large 
    300 |     1 |315789 |1002.1 | 287M|-2.976458e+11 |-1.008296e+09 |  Large 
    400 |     1 |392554 | 943.3 | 287M|-2.976458e+11 |-1.008296e+09 |  Large 
    500 |     1 |515857 |1001.4 | 287M|-2.976458e+11 |-1.008296e+09 |  Large 
    600 |     3 |606024 | 984.7 | 287M|-2.827524e+11 |-1.008296e+09 |  Large 
    700 |     3 |775237 |1085.9 | 288M|-2.827524e+11 |-1.008296e+09 |  Large 
    800 |     3 |947711 |1165.9 | 288M|-2.827524e+11 |-1.008296e+09 |  Large 
    900 |     3 |  1109k|1216.3 | 288M|-2.827524e+11 |-1.008296e+09 |  Large 
   1000 |     7 |  1274k|1259.4 | 289M|-2.827524e+11 |-1.008296e+09 |  Large 
   1100 |     7 |  1439k|1295.0 | 289M|-2.827524e+11 |-1.008296e+09 |  Large 
  node  | left  |LP iter|LP it/n| mem |  dualbound   | primalbound  |  gap   
   1200 |    15 |  1581k|1305.5 | 289M|-2.827524e+11 |-1.008296e+09 |  Large 
   1300 |    17 |  1769k|1349.9 | 292M|-2.827524e+11 |-1.008296e+09 |  Large 
   1400 |    21 |  1974k|1400.1 | 294M|-2.827524e+11 |-1.008296e+09 |  Large 
   1500 |     9 |  2271k|1504.9 | 295M|-2.827524e+11 |-1.008296e+09 |  Large 
   1600 |    17 |  2501k|1554.1 | 295M|-2.300427e+11 |-1.008296e+09 |  Large 
   1700 |    23 |  2640k|1544.5 | 295M|-2.203146e+11 |-1.008296e+09 |  Large 
   1800 |    23 |  2828k|1563.4 | 295M|-2.203146e+11 |-1.008296e+09 |  Large 
   1900 |    23 |  3090k|1618.8 | 295M|-2.203146e+11 |-1.008296e+09 |  Large 
   2000 |    23 |  3228k|1606.8 | 295M|-2.088306e+11 |-1.008296e+09 |  Large 
   2100 |    25 |  3328k|1578.0 | 295M|-1.550123e+11 |-1.008296e+09 |  Large 
   2200 |    25 |  3537k|1601.3 | 295M|-1.550123e+11 |-1.008296e+09 |  Large 
   2300 |    25 |  3697k|1601.2 | 295M|-1.550123e+11 |-1.008296e+09 |  Large 
   2400 |    25 |  3884k|1612.7 | 295M|-1.550123e+11 |-1.008296e+09 |  Large 
   2500 |    25 |  4046k|1612.8 | 295M|-1.550123e+11 |-1.008296e+09 |  Large 
   2600 |    25 |  4220k|1617.6 | 295M|-1.550123e+11 |-1.008296e+09 |  Large 
  node  | left  |LP iter|LP it/n| mem |  dualbound   | primalbound  |  gap   
   2700 |    25 |  4426k|1633.9 | 295M|-1.550123e+11 |-1.008296e+09 |  Large 
   2800 |    25 |  4617k|1644.0 | 295M|-1.550123e+11 |-1.008296e+09 |  Large 
   2900 |   113 |  4639k|1594.8 | 296M|-1.550123e+11 |-1.008296e+09 |  Large 
   3000 |   213 |  4639k|1541.6 | 297M|-1.550123e+11 |-1.008296e+09 |  Large 
   3100 |   309 |  4648k|1494.9 | 298M|-1.550123e+11 |-1.008296e+09 |  Large 
   3200 |   333 |  4776k|1487.9 | 300M|-1.550123e+11 |-1.008296e+09 |  Large 
   3300 |   333 |  4989k|1507.4 | 300M|-1.550123e+11 |-1.008296e+09 |  Large 
   3400 |   333 |  5217k|1530.2 | 300M|-1.550123e+11 |-1.008296e+09 |  Large 
   3500 |   333 |  5438k|1549.8 | 300M|-1.550123e+11 |-1.008296e+09 |  Large 
   3600 |   333 |  5659k|1568.0 | 300M|-1.550123e+11 |-1.008296e+09 |  Large 
   3700 |   333 |  5897k|1590.0 | 300M|-1.550123e+11 |-1.008296e+09 |  Large 
   3800 |   333 |  6105k|1602.8 | 300M|-1.550123e+11 |-1.008296e+09 |  Large 
   3900 |   333 |  6356k|1626.0 | 300M|-1.550123e+11 |-1.008296e+09 |  Large 
   4000 |   333 |  6687k|1668.4 | 300M|-1.550123e+11 |-1.008296e+09 |  Large 
   4100 |   333 |  6974k|1697.5 | 300M|-1.550123e+11 |-1.008296e+09 |  Large 
  node  | left  |LP iter|LP it/n| mem |  dualbound   | primalbound  |  gap   
   4200 |   333 |  7239k|1720.2 | 300M|-1.550123e+11 |-1.008296e+09 |  Large 
   4300 |   333 |  7456k|1730.8 | 300M|-1.550123e+11 |-1.008296e+09 |  Large 
   4400 |   333 |  7729k|1753.3 | 300M|-1.550123e+11 |-1.008296e+09 |  Large 
   4500 |   333 |  7934k|1760.0 | 300M|-1.550123e+11 |-1.008296e+09 |  Large 
   4600 |   333 |  8181k|1775.5 | 300M|-1.550123e+11 |-1.008296e+09 |  Large 
   4700 |   335 |  8441k|1792.9 | 300M|-1.550123e+11 |-1.008296e+09 |  Large 
   4800 |   335 |  8713k|1812.2 | 300M|-1.550123e+11 |-1.008296e+09 |  Large 
   4900 |   335 |  8978k|1829.3 | 300M|-1.550123e+11 |-1.008296e+09 |  Large 
   5000 |   335 |  9169k|1831.1 | 300M|-1.550123e+11 |-1.008296e+09 |  Large 
   5100 |   335 |  9303k|1821.3 | 300M|-1.550123e+11 |-1.008296e+09 |  Large 
   5200 |   337 |  9479k|1820.2 | 300M|-1.550123e+11 |-1.008296e+09 |  Large 
   5300 |   339 |  9723k|1831.8 | 300M|-1.550123e+11 |-1.008296e+09 |  Large 
   5400 |   339 | 10004k|1850.0 | 300M|-1.550123e+11 |-1.008296e+09 |  Large 
   5500 |   339 | 10304k|1870.9 | 300M|-1.550123e+11 |-1.008296e+09 |  Large 
   5600 |   339 | 10547k|1880.8 | 300M|-1.550123e+11 |-1.008296e+09 |  Large 
  node  | left  |LP iter|LP it/n| mem |  dualbound   | primalbound  |  gap   
   5700 |   339 | 10844k|1900.1 | 300M|-1.550123e+11 |-1.008296e+09 |  Large 
   5800 |   339 | 11166k|1922.8 | 300M|-1.550123e+11 |-1.008296e+09 |  Large 
   5900 |   339 | 11392k|1928.5 | 300M|-1.550123e+11 |-1.008296e+09 |  Large 
   6000 |   339 | 11546k|1922.1 | 300M|-1.550123e+11 |-1.008296e+09 |  Large 
   6100 |   339 | 11735k|1921.5 | 300M|-1.550123e+11 |-1.008296e+09 |  Large 
   6200 |   339 | 11891k|1915.6 | 300M|-1.550123e+11 |-1.008296e+09 |  Large 
   6300 |   339 | 12093k|1917.4 | 300M|-1.550123e+11 |-1.008296e+09 |  Large 
   6400 |   339 | 12224k|1907.8 | 300M|-1.550123e+11 |-1.008296e+09 |  Large 
   6500 |   339 | 12415k|1907.9 | 300M|-1.550123e+11 |-1.008296e+09 |  Large 
   6600 |   341 | 12639k|1912.9 | 301M|-1.550123e+11 |-1.008296e+09 |  Large 
   6700 |   343 | 12741k|1899.6 | 301M|-1.550123e+11 |-1.008296e+09 |  Large 
   6800 |   345 | 12917k|1897.5 | 301M|-1.550123e+11 |-1.008296e+09 |  Large 
   6900 |   345 | 13271k|1921.4 | 301M|-1.550123e+11 |-1.008296e+09 |  Large 
   7000 |   345 | 13883k|1981.4 | 301M|-1.550123e+11 |-1.008296e+09 |  Large 
   7100 |   345 | 14442k|2032.1 | 301M|-1.550123e+11 |-1.008296e+09 |  Large 
  node  | left  |LP iter|LP it/n| mem |  dualbound   | primalbound  |  gap   
   7200 |   345 | 14939k|2072.9 | 301M|-1.550123e+11 |-1.008296e+09 |  Large 

SCIP Status        : solving was interrupted [time limit reached]
Solving Time (sec) : 43200.22
Solving Nodes      : 7271
Primal Bound       : -1.00829613122000e+09 (1 solutions)
Dual Bound         : -1.41737979402996e+11
Gap                : 13957.18 %
  [nonlinear] <nonlin>: (((-9.000000) * <_var0_>) + ((-8.000000) * <_var1_>) + (3.000000 * <_var2_>) + ((-5.000000) * <_var3_>) + (5.000000 * <_var4_>) + (6.000000 * <_var5_>) + (9.000000 * <_var6_>) + ((-7.000000) * <_var7_>) + ((-1.000000) * <_var8_>) + (4.000000 * <_var9_>) + (1.000000 * <_var10_>) + (3.000000 * <_var11_>) + (10.000000 * <_var12_>) + ((-6.000000) * <_var13_>) + ((-7.000000) * <_var14_>) + ((-5.000000) * <_var15_>) + ((-4.000000) * <_var16_>) + ((-1.000000) * <_var17_>) + ((-5.000000) * <_var18_>) + (6.000000 * <_var20_>) + ((-4.000000) * <_var21_>) + (9.000000 * <_var22_>) + ((-5.000000) * <_var23_>) + (9.000000 * <_var24_>) + (5.000000 * <_var25_>) + ((-1.000000) * <_var26_>) + (4.000000 * <_var27_>) + (6.000000 * <_var28_>) + (6.000000 * <_var29_>)) <= 37;
violation: right hand side is violated by 2.64997925114585e-06 (scaled: 2.64997925114585e-06)
best solution is not feasible in original problem
WARNING: Not solved to optimality, status: UserLimit
